(set-option :produce-models true)
(set-option :produce-unsat-cores true)
(set-option :produce-interpolants true)
(set-option :interpolant-check-mode true)
(set-option :proof-transformation LU)
(set-logic ALL)
(set-info :source |SMT script generated on 2024-03-31T00:12:14+01:00 by Ultimate (https://ultimate.informatik.uni-freiburg.de/)|)
(set-info :smt-lib-version 2.5)
(set-info :category "industrial")
(set-info :ultimate-id ps3-ll_valuebound2.c_AllErrorsAtOnce_Iteration1)
(declare-fun |c_old(#valid)| () (Array Int Int))
(declare-fun |c_old(#valid)_primed| () (Array Int Int))
(declare-fun |c_#valid| () (Array Int Int))
(declare-fun |c_#valid_primed| () (Array Int Int))
(declare-fun |c_old(#length)| () (Array Int Int))
(declare-fun |c_old(#length)_primed| () (Array Int Int))
(declare-fun |c_#length| () (Array Int Int))
(declare-fun |c_#length_primed| () (Array Int Int))
(declare-fun |c_old(#memory_int#0)| () (Array Int (Array Int Int)))
(declare-fun |c_old(#memory_int#0)_primed| () (Array Int (Array Int Int)))
(declare-fun |c_#memory_int#0| () (Array Int (Array Int Int)))
(declare-fun |c_#memory_int#0_primed| () (Array Int (Array Int Int)))
(declare-fun |c_old(#StackHeapBarrier)| () Int)
(declare-fun |c_old(#StackHeapBarrier)_primed| () Int)
(declare-fun |c_#StackHeapBarrier| () Int)
(declare-fun |c_#StackHeapBarrier_primed| () Int)
(declare-fun |c_#Ultimate.allocInit_~size| () Int)
(declare-fun |c_#Ultimate.allocInit_~size_primed| () Int)
(declare-fun |c_#Ultimate.allocInit_ptrBase| () Int)
(declare-fun |c_#Ultimate.allocInit_ptrBase_primed| () Int)
(declare-fun |c_read~int#0_#ptr.base| () Int)
(declare-fun |c_read~int#0_#ptr.base_primed| () Int)
(declare-fun |c_read~int#0_#ptr.offset| () Int)
(declare-fun |c_read~int#0_#ptr.offset_primed| () Int)
(declare-fun |c_read~int#0_#sizeOfReadType| () Int)
(declare-fun |c_read~int#0_#sizeOfReadType_primed| () Int)
(declare-fun |c_read~int#0_#value| () Int)
(declare-fun |c_read~int#0_#value_primed| () Int)
(declare-fun |c_assume_abort_if_not_#in~cond| () Int)
(declare-fun |c_assume_abort_if_not_#in~cond_primed| () Int)
(declare-fun c_assume_abort_if_not_~cond () Int)
(declare-fun c_assume_abort_if_not_~cond_primed () Int)
(declare-fun |c_main_#res| () Int)
(declare-fun |c_main_#res_primed| () Int)
(declare-fun |c_main_#t~nondet4| () Int)
(declare-fun |c_main_#t~nondet4_primed| () Int)
(declare-fun c_main_~k~0 () Int)
(declare-fun c_main_~k~0_primed () Int)
(declare-fun c_main_~y~0 () Int)
(declare-fun c_main_~y~0_primed () Int)
(declare-fun c_main_~x~0 () Int)
(declare-fun c_main_~x~0_primed () Int)
(declare-fun c_main_~c~0 () Int)
(declare-fun c_main_~c~0_primed () Int)
(declare-fun |c_write~int#0_#value| () Int)
(declare-fun |c_write~int#0_#value_primed| () Int)
(declare-fun |c_write~int#0_#ptr.base| () Int)
(declare-fun |c_write~int#0_#ptr.base_primed| () Int)
(declare-fun |c_write~int#0_#ptr.offset| () Int)
(declare-fun |c_write~int#0_#ptr.offset_primed| () Int)
(declare-fun |c_write~int#0_#sizeOfWrittenType| () Int)
(declare-fun |c_write~int#0_#sizeOfWrittenType_primed| () Int)
(declare-fun |c___VERIFIER_nondet_short_#res| () Int)
(declare-fun |c___VERIFIER_nondet_short_#res_primed| () Int)
(declare-fun |c_ULTIMATE.start_#t~ret5| () Int)
(declare-fun |c_ULTIMATE.start_#t~ret5_primed| () Int)
(declare-fun |c___VERIFIER_assert_#in~cond| () Int)
(declare-fun |c___VERIFIER_assert_#in~cond_primed| () Int)
(declare-fun c___VERIFIER_assert_~cond () Int)
(declare-fun c___VERIFIER_assert_~cond_primed () Int)
(declare-fun |c___assert_fail_#in~0.base| () Int)
(declare-fun |c___assert_fail_#in~0.base_primed| () Int)
(declare-fun |c___assert_fail_#in~0.offset| () Int)
(declare-fun |c___assert_fail_#in~0.offset_primed| () Int)
(declare-fun |c___assert_fail_#in~1.base| () Int)
(declare-fun |c___assert_fail_#in~1.base_primed| () Int)
(declare-fun |c___assert_fail_#in~1.offset| () Int)
(declare-fun |c___assert_fail_#in~1.offset_primed| () Int)
(declare-fun |c___assert_fail_#in~2| () Int)
(declare-fun |c___assert_fail_#in~2_primed| () Int)
(declare-fun |c___assert_fail_#in~3.base| () Int)
(declare-fun |c___assert_fail_#in~3.base_primed| () Int)
(declare-fun |c___assert_fail_#in~3.offset| () Int)
(declare-fun |c___assert_fail_#in~3.offset_primed| () Int)
(declare-fun |c_write~init~int#0_#value| () Int)
(declare-fun |c_write~init~int#0_#value_primed| () Int)
(declare-fun |c_write~init~int#0_#ptr.base| () Int)
(declare-fun |c_write~init~int#0_#ptr.base_primed| () Int)
(declare-fun |c_write~init~int#0_#ptr.offset| () Int)
(declare-fun |c_write~init~int#0_#ptr.offset_primed| () Int)
(declare-fun |c_write~init~int#0_#sizeOfWrittenType| () Int)
(declare-fun |c_write~init~int#0_#sizeOfWrittenType_primed| () Int)
(declare-fun c_ULTIMATE.dealloc_~addr.base () Int)
(declare-fun c_ULTIMATE.dealloc_~addr.base_primed () Int)
(declare-fun c_ULTIMATE.dealloc_~addr.offset () Int)
(declare-fun c_ULTIMATE.dealloc_~addr.offset_primed () Int)
(declare-fun |c_aux_v_ULTIMATE.start_#t~ret5_3| () Int)
(echo "starting trace check")
(push 1)
(declare-fun |#memory_int#0_-1| () (Array Int (Array Int Int)))
(declare-fun |#StackHeapBarrier_-1| () Int)
(declare-fun |#length_-1| () (Array Int Int))
(declare-fun |#valid_-1| () (Array Int Int))
(declare-fun |main_#t~nondet4_4| () Int)
(declare-fun main_~x~0_4 () Int)
(declare-fun main_~k~0_4 () Int)
(declare-fun main_~c~0_4 () Int)
(declare-fun main_~y~0_4 () Int)
(declare-fun main_~k~0_5 () Int)
(declare-fun |assume_abort_if_not_#in~cond_5| () Int)
(declare-fun assume_abort_if_not_~cond_6 () Int)
(declare-fun main_~x~0_10 () Int)
(declare-fun main_~c~0_10 () Int)
(declare-fun main_~y~0_10 () Int)
(declare-fun |__VERIFIER_assert_#in~cond_12| () Int)
(declare-fun main_~x~0_12 () Int)
(declare-fun main_~y~0_12 () Int)
(declare-fun __VERIFIER_assert_~cond_13 () Int)
(declare-fun __VERIFIER_assert_~cond_14 () Int)
(assert (! true :named ssa_precond))
(assert (! (not false) :named ssa_postcond))
(assert (! true :named ssa_0_GlobVarAssigCall))
(assert (! true :named ssa_0_LocVarAssigCall))
(assert (! true :named ssa_0_OldVarAssigCall))
(assert (! (and (< 0 |#StackHeapBarrier_-1|) (= 12 (select |#length_-1| 3)) (= 9 (select |#length_-1| 2)) (= (select |#valid_-1| 3) 1) (= (select |#valid_-1| 2) 1) (= (select |#valid_-1| 1) 1) (= (select (select |#memory_int#0_-1| 1) 1) 0) (= (select |#length_-1| 1) 2) (= (select (select |#memory_int#0_-1| 1) 0) 48) (= (select |#valid_-1| 0) 0)) :named ssa_1))
(assert (! true :named ssa_2_return))
(assert (! true :named ssa_3_GlobVarAssigCall))
(assert (! true :named ssa_3_LocVarAssigCall))
(assert (! true :named ssa_3_OldVarAssigCall))
(assert (! (and (<= 0 (+ main_~k~0_4 32768)) (<= main_~k~0_4 32767)) :named ssa_4))
(assert (! true :named ssa_5_GlobVarAssigCall))
(assert (! (= |assume_abort_if_not_#in~cond_5| (ite (and (<= main_~k~0_4 2) (<= 0 main_~k~0_4)) 1 0)) :named ssa_5_LocVarAssigCall))
(assert (! true :named ssa_5_OldVarAssigCall))
(assert (! (= |assume_abort_if_not_#in~cond_5| assume_abort_if_not_~cond_6) :named ssa_6))
(assert (! false :named ssa_7))
(assert (! true :named ssa_8))
(assert (! true :named ssa_9_return))
(assert (! (and (= main_~c~0_10 0) (= main_~y~0_10 0) (= main_~x~0_10 0)) :named ssa_10))
(assert (! false :named ssa_11))
(assert (! true :named ssa_12_GlobVarAssigCall))
(assert (! (= (ite (= (+ main_~y~0_10 (* 2 (* main_~y~0_10 main_~y~0_10 main_~y~0_10)) (* 3 (* main_~y~0_10 main_~y~0_10))) (* main_~x~0_10 6)) 1 0) |__VERIFIER_assert_#in~cond_12|) :named ssa_12_LocVarAssigCall))
(assert (! true :named ssa_12_OldVarAssigCall))
(assert (! (= __VERIFIER_assert_~cond_13 |__VERIFIER_assert_#in~cond_12|) :named ssa_13))
(assert (! (= __VERIFIER_assert_~cond_13 0) :named ssa_14))
(assert (! true :named ssa_15))
(check-sat)
(get-interpolants (and ssa_0_LocVarAssigCall ssa_precond ssa_0_GlobVarAssigCall ssa_0_OldVarAssigCall ssa_2_return ssa_1) (and ssa_3_OldVarAssigCall ssa_3_LocVarAssigCall ssa_3_GlobVarAssigCall) ssa_4 (and ssa_5_LocVarAssigCall ssa_5_GlobVarAssigCall ssa_7 ssa_6 ssa_8 ssa_5_OldVarAssigCall ssa_9_return) ssa_10 ssa_11 (and ssa_12_OldVarAssigCall ssa_12_LocVarAssigCall ssa_12_GlobVarAssigCall) ssa_13 ssa_14 (and ssa_15 ssa_postcond))
(exit)
